; https=//stackoverflow.com/questions/31135150/excel-vba-how-to-extract-the-substring-if-we-know-the-positions-of-first-and-la
(set-logic SLIA)
(synth-fun f ((_arg_0 String)) String 
 ( (Start String (ntString)) 
 (ntString String (
	_arg_0
	"" " " "/"
	(str.++ ntString ntString) 
	(str.replace ntString ntString ntString) 
	(str.at ntString ntInt)
	(int.to.str ntInt)
	(str.substr ntString ntInt ntInt)
)) 
 (ntInt Int (
	
	1 0 -1
	(+ ntInt ntInt)
	(- ntInt ntInt)
	(str.len ntString)
	(str.to.int ntString)
	(str.indexof ntString ntString ntInt)
)) 
 (ntBool Bool (
	
	true false
	(= ntInt ntInt)
	(str.prefixof ntString ntString)
	(str.suffixof ntString ntString)
	(str.contains ntString ntString)
)) ))
(constraint (= (f "Excel/Sheet1.xls") "Sheet1.xls"))
(constraint (= (f "home/user/Sheet1.xls") "Sheet1.xls"))
(check-synth)
